(set-logic QF_S)
(declare-fun var_0xINPUT_163651 () String)
(assert (and (not (= var_0xINPUT_163651 "CQALcCP5TB")) (= (len var_0xINPUT_163651) 0) (= (len var_0xINPUT_163651) 0) (= (len var_0xINPUT_163651) 0) (not (= (len var_0xINPUT_163651) 0)) (= (len var_0xINPUT_163651) 0) (not (= var_0xINPUT_163651 "CQALcCP5TB")) (not (= var_0xINPUT_163651 "CQALcCP5TB")) (not (= (len var_0xINPUT_163651) 0)) (= (len var_0xINPUT_163651) 0) (not (= var_0xINPUT_163651 "CQALcCP5TB")) (not (= var_0xINPUT_163651 "CQALcCP5TB")) (not (= (len var_0xINPUT_163651) 0)) (= (len var_0xINPUT_163651) 0) (= (len var_0xINPUT_163651) 0) (= (len var_0xINPUT_163651) 0) (not (= (len var_0xINPUT_163651) 0)) (= (len var_0xINPUT_163651) 0) (= (len var_0xINPUT_163651) 0) (= (len var_0xINPUT_163651) 0) (not (= (len var_0xINPUT_163651) 0)) (= (len var_0xINPUT_163651) 0)))
(check-sat var_0xINPUT_163651)